data/solutions/planning/wellformed/moderate/weighting/wellformed_moderate_instance65_cplex.sol
Elapsed time: 3.57
Nodes explored: 12493
Nodes left: 0
Relative gap: 0.0
Upper bound: 259188.0
Lower bound: 259188
C[0]=8361.0
C[1]=8361.0
C[2]=8361.0
C[3]=8360.0
C[4]=8360.0
y[0]=0
y[1]=0
y[2]=1
y[3]=1
y[4]=4
y[5]=0
y[6]=0
y[7]=3
y[8]=1
y[9]=2
y[10]=0
y[11]=4
y[12]=0
y[13]=4
y[14]=3
y[15]=1
y[16]=1
y[17]=0
y[18]=4
y[19]=2
y[20]=2
y[21]=3
y[22]=3
y[23]=2
y[24]=1
y[25]=2
y[26]=3
y[27]=1
y[28]=4
y[29]=2
y[30]=0
y[31]=2
y[32]=3
y[33]=3
y[34]=4
y[35]=3
y[36]=4
y[37]=4
y[38]=4
y[39]=2
